p cnf 412 698
-32 23 42 76 0
-32 23 42 -76 0
55 -63 45 77 0
55 -63 45 -77 0
-2 10 -43 78 0
-2 10 -43 -78 0
19 49 -44 79 0
19 49 -44 -79 0
1 8 -30 80 0
1 8 -30 -80 0
-49 -45 40 81 0
-49 -45 40 -81 0
46 41 -45 82 0
46 41 -45 -82 0
-32 44 -24 83 0
-32 44 -24 -83 0
75 10 23 84 0
75 10 23 -84 0
-39 9 -54 85 0
-39 9 -54 -85 0
38 -56 5 86 0
38 -56 5 -86 0
66 18 -69 87 0
66 18 -69 -87 0
45 63 26 88 0
45 63 26 -88 0
-32 -39 -49 89 0
-32 -39 -49 -89 0
28 -49 50 90 0
28 -49 50 -90 0
-55 40 -19 91 0
-55 40 -19 -91 0
66 -35 -36 92 0
66 -35 -36 -92 0
-48 -42 63 93 0
-48 -42 63 -93 0
-24 21 55 94 0
-24 21 55 -94 0
-69 -37 -68 95 0
-69 -37 -68 -95 0
58 33 17 96 0
58 33 17 -96 0
45 23 -69 97 0
45 23 -69 -97 0
-6 -74 13 98 0
-6 -74 13 -98 0
-9 21 23 99 0
-9 21 23 -99 0
-8 -12 -68 100 0
-8 -12 -68 -100 0
-52 -38 3 101 0
-52 -38 3 -101 0
28 9 57 102 0
28 9 57 -102 0
67 19 6 103 0
67 19 6 -103 0
7 20 -23 104 0
7 20 -23 -104 0
-60 16 53 105 0
-60 16 53 -105 0
23 -68 72 106 0
23 -68 72 -106 0
-59 13 -44 107 0
-59 13 -44 -107 0
-47 25 2 108 0
-47 25 2 -108 0
54 -36 -33 109 0
54 -36 -33 -109 0
43 50 -57 110 0
43 50 -57 -110 0
-54 -50 -64 111 0
-54 -50 -64 -111 0
-10 57 63 112 0
-10 57 63 -112 0
-37 -67 -45 113 0
-37 -67 -45 -113 0
51 21 36 114 0
51 21 36 -114 0
50 64 75 115 0
50 64 75 -115 0
28 63 -1 116 0
28 63 -1 -116 0
-66 47 56 117 0
-66 47 56 -117 0
-73 62 68 118 0
-73 62 68 -118 0
41 75 57 119 0
41 75 57 -119 0
26 59 68 120 0
26 59 68 -120 0
-52 -42 64 121 0
-52 -42 64 -121 0
52 48 71 122 0
52 48 71 -122 0
33 -23 7 123 0
33 -23 7 -123 0
-61 30 -31 124 0
-61 30 -31 -124 0
-47 57 23 125 0
-47 57 23 -125 0
40 60 -3 126 0
40 60 -3 -126 0
-54 -14 -33 127 0
-54 -14 -33 -127 0
70 3 -5 128 0
70 3 -5 -128 0
-33 -14 -24 129 0
-33 -14 -24 -129 0
-28 -37 51 130 0
-28 -37 51 -130 0
-31 -29 -15 131 0
-31 -29 -15 -131 0
38 -4 31 132 0
38 -4 31 -132 0
7 51 18 133 0
7 51 18 -133 0
42 -17 35 134 0
42 -17 35 -134 0
58 26 50 135 0
58 26 50 -135 0
45 47 -60 136 0
45 47 -60 -136 0
69 40 14 137 0
69 40 14 -137 0
13 -64 -45 138 0
13 -64 -45 -138 0
63 8 15 139 0
63 8 15 -139 0
1 -31 4 140 0
1 -31 4 -140 0
-4 -19 69 141 0
-4 -19 69 -141 0
-46 -44 70 142 0
-46 -44 70 -142 0
-11 63 -71 143 0
-11 63 -71 -143 0
-36 72 -70 144 0
-36 72 -70 -144 0
3 -15 31 145 0
3 -15 31 -145 0
28 -52 -21 146 0
28 -52 -21 -146 0
-51 -9 39 147 0
-51 -9 39 -147 0
-54 -4 1 148 0
-54 -4 1 -148 0
36 -20 7 149 0
36 -20 7 -149 0
-29 72 34 150 0
-29 72 34 -150 0
61 -31 58 151 0
61 -31 58 -151 0
-1 -27 31 152 0
-1 -27 31 -152 0
-54 51 27 153 0
-54 51 27 -153 0
-64 60 31 154 0
-64 60 31 -154 0
-15 43 22 155 0
-15 43 22 -155 0
55 12 -38 156 0
55 12 -38 -156 0
-19 -58 14 157 0
-19 -58 14 -157 0
37 -31 -64 158 0
37 -31 -64 -158 0
-5 -39 -31 159 0
-5 -39 -31 -159 0
-14 -21 1 160 0
-14 -21 1 -160 0
43 59 5 161 0
43 59 5 -161 0
64 21 -18 162 0
64 21 -18 -162 0
40 -41 27 163 0
40 -41 27 -163 0
-28 -61 46 164 0
-28 -61 46 -164 0
-38 -74 44 165 0
-38 -74 44 -165 0
-64 29 74 166 0
-64 29 74 -166 0
-28 23 21 167 0
-28 23 21 -167 0
-42 64 -65 168 0
-42 64 -65 -168 0
-75 44 32 169 0
-75 44 32 -169 0
69 65 16 170 0
69 65 16 -170 0
-53 16 -31 171 0
-53 16 -31 -171 0
-52 37 12 172 0
-52 37 12 -172 0
22 -48 -25 173 0
22 -48 -25 -173 0
57 42 10 174 0
57 42 10 -174 0
-29 -6 -26 175 0
-29 -6 -26 -175 0
46 -20 69 176 0
46 -20 69 -176 0
65 -48 -40 177 0
65 -48 -40 -177 0
-37 66 -19 178 0
-37 66 -19 -178 0
27 -58 26 179 0
27 -58 26 -179 0
74 -24 42 180 0
74 -24 42 -180 0
-2 -39 29 181 0
-2 -39 29 -181 0
74 30 -73 182 0
74 30 -73 -182 0
8 -68 33 183 0
8 -68 33 -183 0
11 -6 16 184 0
11 -6 16 -184 0
-73 -41 35 185 0
-73 -41 35 -185 0
49 -66 65 186 0
49 -66 65 -186 0
28 59 58 187 0
28 59 58 -187 0
67 -29 -6 188 0
67 -29 -6 -188 0
58 65 73 189 0
58 65 73 -189 0
-23 -72 -43 190 0
-23 -72 -43 -190 0
-36 51 59 191 0
-36 51 59 -191 0
66 -21 71 192 0
66 -21 71 -192 0
7 -71 -14 193 0
7 -71 -14 -193 0
12 -40 62 194 0
12 -40 62 -194 0
-19 -13 15 195 0
-19 -13 15 -195 0
-55 -35 52 196 0
-55 -35 52 -196 0
-52 64 -33 197 0
-52 64 -33 -197 0
-55 -10 -70 198 0
-55 -10 -70 -198 0
-66 -52 -9 199 0
-66 -52 -9 -199 0
71 -5 11 200 0
71 -5 11 -200 0
11 -45 -62 201 0
11 -45 -62 -201 0
60 31 33 202 0
60 31 33 -202 0
11 43 -26 203 0
11 43 -26 -203 0
-70 -59 3 204 0
-70 -59 3 -204 0
-42 -49 12 205 0
-42 -49 12 -205 0
-63 9 66 206 0
-63 9 66 -206 0
49 2 63 207 0
49 2 63 -207 0
-37 -43 -64 208 0
-37 -43 -64 -208 0
-57 41 54 209 0
-57 41 54 -209 0
-61 54 72 210 0
-61 54 72 -210 0
-18 -44 -8 211 0
-18 -44 -8 -211 0
-41 62 -28 212 0
-41 62 -28 -212 0
-8 61 37 213 0
-8 61 37 -213 0
51 72 12 214 0
51 72 12 -214 0
21 62 -31 215 0
21 62 -31 -215 0
34 35 42 216 0
34 35 42 -216 0
67 6 34 217 0
67 6 34 -217 0
-44 -10 45 218 0
-44 -10 45 -218 0
-14 -39 -13 219 0
-14 -39 -13 -219 0
70 -33 -2 220 0
70 -33 -2 -220 0
45 10 -27 221 0
45 10 -27 -221 0
-18 -27 -51 222 0
-18 -27 -51 -222 0
59 -32 -9 223 0
59 -32 -9 -223 0
-29 -9 -14 224 0
-29 -9 -14 -224 0
14 -52 -18 225 0
14 -52 -18 -225 0
8 -33 2 226 0
8 -33 2 -226 0
-4 -62 -64 227 0
-4 -62 -64 -227 0
-54 -22 9 228 0
-54 -22 9 -228 0
-38 -3 -13 229 0
-38 -3 -13 -229 0
-36 -58 47 230 0
-36 -58 47 -230 0
-46 -5 68 231 0
-46 -5 68 -231 0
-10 42 -24 232 0
-10 42 -24 -232 0
-50 -73 -8 233 0
-50 -73 -8 -233 0
-62 -23 59 234 0
-62 -23 59 -234 0
-69 35 10 235 0
-69 35 10 -235 0
-1 59 -12 236 0
-1 59 -12 -236 0
-30 -41 16 237 0
-30 -41 16 -237 0
-40 -14 34 238 0
-40 -14 34 -238 0
29 -59 -41 239 0
29 -59 -41 -239 0
-41 52 74 240 0
-41 52 74 -240 0
-58 18 70 241 0
-58 18 70 -241 0
-43 41 66 242 0
-43 41 66 -242 0
-19 59 -43 243 0
-19 59 -43 -243 0
71 -61 24 244 0
71 -61 24 -244 0
-1 39 58 245 0
-1 39 58 -245 0
10 -72 19 246 0
10 -72 19 -246 0
29 33 70 247 0
29 33 70 -247 0
49 35 72 248 0
49 35 72 -248 0
56 -8 14 249 0
56 -8 14 -249 0
-10 -44 -51 250 0
-10 -44 -51 -250 0
69 -52 -60 251 0
69 -52 -60 -251 0
40 8 -35 252 0
40 8 -35 -252 0
1 -58 -45 253 0
1 -58 -45 -253 0
73 -2 12 254 0
73 -2 12 -254 0
12 -15 -73 255 0
12 -15 -73 -255 0
73 33 47 256 0
73 33 47 -256 0
49 -21 -29 257 0
49 -21 -29 -257 0
56 -48 34 258 0
56 -48 34 -258 0
23 -62 -30 259 0
23 -62 -30 -259 0
-57 75 -14 260 0
-57 75 -14 -260 0
42 1 -28 261 0
42 1 -28 -261 0
-34 -58 60 262 0
-34 -58 60 -262 0
-38 -45 -5 263 0
-38 -45 -5 -263 0
-25 -18 -56 264 0
-25 -18 -56 -264 0
-54 33 -44 265 0
-54 33 -44 -265 0
63 -54 -48 266 0
63 -54 -48 -266 0
-55 25 39 267 0
-55 25 39 -267 0
72 -50 -73 268 0
72 -50 -73 -268 0
-70 -10 51 269 0
-70 -10 51 -269 0
28 19 62 270 0
28 19 62 -270 0
7 10 -6 271 0
7 10 -6 -271 0
2 -25 -42 272 0
2 -25 -42 -272 0
-11 -51 39 273 0
-11 -51 39 -273 0
51 -53 8 274 0
51 -53 8 -274 0
-52 58 -14 275 0
-52 58 -14 -275 0
3 23 -52 276 0
3 23 -52 -276 0
-26 49 -64 277 0
-26 49 -64 -277 0
-30 20 -16 278 0
-30 20 -16 -278 0
27 52 37 279 0
27 52 37 -279 0
-62 -52 -59 280 0
-62 -52 -59 -280 0
46 -50 -21 281 0
46 -50 -21 -281 0
-62 25 17 282 0
-62 25 17 -282 0
15 -47 -46 283 0
15 -47 -46 -283 0
-15 67 24 284 0
-15 67 24 -284 0
52 12 -1 285 0
52 12 -1 -285 0
-33 57 22 286 0
-33 57 22 -286 0
22 -67 -46 287 0
22 -67 -46 -287 0
64 55 -34 288 0
64 55 -34 -288 0
6 25 66 289 0
6 25 66 -289 0
-53 28 -14 290 0
-53 28 -14 -290 0
21 -48 -24 291 0
21 -48 -24 -291 0
-17 39 -8 292 0
-17 39 -8 -292 0
-37 -59 30 293 0
-37 -59 30 -293 0
-73 -48 -65 294 0
-73 -48 -65 -294 0
-52 -17 -20 295 0
-52 -17 -20 -295 0
-36 2 18 296 0
-36 2 18 -296 0
29 44 -49 297 0
29 44 -49 -297 0
-32 63 -59 298 0
-32 63 -59 -298 0
21 33 14 299 0
21 33 14 -299 0
-52 -7 -20 300 0
-52 -7 -20 -300 0
-42 32 2 301 0
-42 32 2 -301 0
-70 44 73 302 0
-70 44 73 -302 0
43 36 -12 303 0
43 36 -12 -303 0
67 -43 5 304 0
67 -43 5 -304 0
9 30 -42 305 0
9 30 -42 -305 0
28 -67 70 306 0
28 -67 70 -306 0
-58 46 -54 307 0
-58 46 -54 -307 0
4 57 -20 308 0
4 57 -20 -308 0
-63 74 -9 309 0
-63 74 -9 -309 0
-27 -13 -15 310 0
-27 -13 -15 -310 0
32 68 33 311 0
32 68 33 -311 0
37 -4 -54 312 0
37 -4 -54 -312 0
74 64 -48 313 0
74 64 -48 -313 0
-60 -66 -54 314 0
-60 -66 -54 -314 0
-54 9 70 315 0
-54 9 70 -315 0
-34 -27 -66 316 0
-34 -27 -66 -316 0
21 51 -52 317 0
21 51 -52 -317 0
-35 24 -16 318 0
-35 24 -16 -318 0
37 -18 50 319 0
37 -18 50 -319 0
-8 9 -27 320 0
-8 9 -27 -320 0
34 43 -12 321 0
34 43 -12 -321 0
-22 48 -36 322 0
-22 48 -36 -322 0
-41 43 -19 323 0
-41 43 -19 -323 0
52 56 -63 324 0
52 56 -63 -324 0
58 17 70 325 0
58 17 70 -325 0
70 -50 -48 326 0
70 -50 -48 -326 0
66 20 -48 327 0
66 20 -48 -327 0
-21 -57 -23 328 0
-21 -57 -23 -328 0
-10 -15 23 329 0
-10 -15 23 -329 0
-59 24 -50 330 0
-59 24 -50 -330 0
59 28 -41 331 0
59 28 -41 -331 0
31 -25 -58 332 0
31 -25 -58 -332 0
59 71 56 333 0
59 71 56 -333 0
-48 -45 -33 334 0
-48 -45 -33 -334 0
28 25 -22 335 0
28 25 -22 -335 0
68 61 -7 336 0
68 61 -7 -336 0
-72 -48 -65 337 0
-72 -48 -65 -337 0
54 -34 -37 338 0
54 -34 -37 -338 0
54 13 41 339 0
54 13 41 -339 0
10 36 31 340 0
10 36 31 -340 0
11 -30 19 341 0
11 -30 19 -341 0
-58 -59 -8 342 0
-58 -59 -8 -342 0
-13 -17 -49 343 0
-13 -17 -49 -343 0
-30 70 11 344 0
-30 70 11 -344 0
51 -38 47 345 0
51 -38 47 -345 0
18 30 -23 346 0
18 30 -23 -346 0
-18 -1 -65 347 0
-18 -1 -65 -347 0
-3 56 -64 348 0
-3 56 -64 -348 0
22 62 -39 349 0
22 62 -39 -349 0
49 3 4 350 0
49 3 4 -350 0
-25 -26 -33 351 0
-25 -26 -33 -351 0
31 -3 50 352 0
31 -3 50 -352 0
-67 -70 69 353 0
-67 -70 69 -353 0
-26 68 -13 354 0
-26 68 -13 -354 0
30 74 -42 355 0
30 74 -42 -355 0
-38 44 -2 356 0
-38 44 -2 -356 0
45 -47 -64 357 0
45 -47 -64 -357 0
33 -59 50 358 0
33 -59 50 -358 0
-53 -64 -14 359 0
-53 -64 -14 -359 0
-29 -8 -38 360 0
-29 -8 -38 -360 0
-46 -4 -26 361 0
-46 -4 -26 -361 0
34 -44 14 362 0
34 -44 14 -362 0
-2 -21 64 363 0
-2 -21 64 -363 0
73 24 -16 364 0
73 24 -16 -364 0
50 -43 -2 365 0
50 -43 -2 -365 0
69 -9 -47 366 0
69 -9 -47 -366 0
-61 14 15 367 0
-61 14 15 -367 0
-5 37 -22 368 0
-5 37 -22 -368 0
20 10 18 369 0
20 10 18 -369 0
29 71 73 370 0
29 71 73 -370 0
-74 1 44 371 0
-74 1 44 -371 0
17 7 -38 372 0
17 7 -38 -372 0
-33 10 -35 373 0
-33 10 -35 -373 0
-48 -21 57 374 0
-48 -21 57 -374 0
21 -10 73 375 0
21 -10 73 -375 0
54 39 6 376 0
54 39 6 -376 0
47 -26 32 377 0
47 -26 32 -377 0
-8 -14 -47 378 0
-8 -14 -47 -378 0
-14 40 -70 379 0
-14 40 -70 -379 0
-72 -51 60 380 0
-72 -51 60 -380 0
74 -48 -64 381 0
74 -48 -64 -381 0
-31 -43 24 382 0
-31 -43 24 -382 0
-24 59 19 383 0
-24 59 19 -383 0
-44 39 51 384 0
-44 39 51 -384 0
-13 30 -57 385 0
-13 30 -57 -385 0
23 12 -28 386 0
23 12 -28 -386 0
-61 -34 -44 387 0
-61 -34 -44 -387 0
-22 -57 64 388 0
-22 -57 64 -388 0
-10 -44 70 389 0
-10 -44 70 -389 0
73 30 5 390 0
73 30 5 -390 0
-44 -28 -38 391 0
-44 -28 -38 -391 0
54 -32 -6 392 0
54 -32 -6 -392 0
15 -16 25 393 0
15 -16 25 -393 0
35 -72 61 394 0
35 -72 61 -394 0
-36 -37 -64 395 0
-36 -37 -64 -395 0
67 27 -21 396 0
67 27 -21 -396 0
3 1 23 397 0
3 1 23 -397 0
51 -37 34 398 0
51 -37 34 -398 0
18 -75 3 399 0
18 -75 3 -399 0
64 18 25 400 0
64 18 25 -400 0
401 402 403 404 0
401 402 403 -404 0
401 402 -403 404 0
401 402 -403 -404 0
401 -402 403 404 0
401 -402 403 -404 0
401 -402 -403 404 0
401 -402 -403 -404 0
-401 402 403 404 0
-401 402 403 -404 0
-401 402 -403 404 0
-401 402 -403 -404 0
-401 -402 403 404 0
-401 -402 403 -404 0
-401 -402 -403 404 0
-401 -402 -403 -404 0
405 406 407 408 0
405 406 407 -408 0
405 406 -407 408 0
405 406 -407 -408 0
405 -406 407 408 0
405 -406 407 -408 0
405 -406 -407 408 0
405 -406 -407 -408 0
-405 406 407 408 0
-405 406 407 -408 0
-405 406 -407 408 0
-405 406 -407 -408 0
-405 -406 407 408 0
-405 -406 407 -408 0
-405 -406 -407 408 0
-405 -406 -407 -408 0
409 410 411 412 0
409 410 411 -412 0
409 410 -411 412 0
409 410 -411 -412 0
409 -410 411 412 0
409 -410 411 -412 0
409 -410 -411 412 0
409 -410 -411 -412 0
-409 410 411 412 0
-409 410 411 -412 0
-409 410 -411 412 0
-409 410 -411 -412 0
-409 -410 411 412 0
-409 -410 411 -412 0
-409 -410 -411 412 0
-409 -410 -411 -412 0
